(declare-const X String)
; ^\b\d{2,3}-*\d{7}\b$
(assert (str.in.re X (re.++ ((_ re.loop 2 3) (re.range "0" "9")) (re.* (str.to.re "-")) ((_ re.loop 7 7) (re.range "0" "9")) (str.to.re "\x0a"))))
; ^([a-zA-Z0-9]{6,18}?)$
(assert (not (str.in.re X (re.++ ((_ re.loop 6 18) (re.union (re.range "a" "z") (re.range "A" "Z") (re.range "0" "9"))) (str.to.re "\x0a")))))
; ^(([1-9]\d{0,2}(\,\d{3})*|([1-9]\d*))(\.\d{2})?)|([0]\.(([0][1-9])|([1-9]\d)))$
(assert (not (str.in.re X (re.union (re.++ (re.union (re.++ (re.range "1" "9") ((_ re.loop 0 2) (re.range "0" "9")) (re.* (re.++ (str.to.re ",") ((_ re.loop 3 3) (re.range "0" "9"))))) (re.++ (re.range "1" "9") (re.* (re.range "0" "9")))) (re.opt (re.++ (str.to.re ".") ((_ re.loop 2 2) (re.range "0" "9"))))) (re.++ (str.to.re "\x0a0.") (re.union (re.++ (str.to.re "0") (re.range "1" "9")) (re.++ (re.range "1" "9") (re.range "0" "9"))))))))
; Host\x3AHost\x3Aalertseqepagqfphv\x2fsfd
(assert (not (str.in.re X (str.to.re "Host:Host:alertseqepagqfphv/sfd\x0a"))))
(check-sat)
